data;


param d:= 100;
param r:=5;
param p:=0.100000;
param M:=1000;
param U:=
         1         1       -5.988755e-01
         2         1        8.673209e-01
         3         1        4.128005e-01
         4         1       -8.514836e-01
         5         1        4.312917e-01
         6         1        1.481598e+00
         7         1        1.118120e+00
         8         1        1.080743e+00
         9         1        1.871040e-01
        10         1       -8.085007e-01
        11         1        1.109954e+00
        12         1       -2.071631e+00
        13         1       -1.156706e+00
        14         1        5.736521e-01
        15         1       -4.253760e-01
        16         1       -1.611233e-01
        17         1        1.492331e+00
        18         1       -2.688776e-01
        19         1        1.189848e+00
        20         1       -1.516549e+00
        21         1        4.386398e-01
        22         1       -6.582088e-01
        23         1        6.095543e-01
        24         1        6.325293e-01
        25         1        1.986784e+00
        26         1        1.215120e+00
        27         1       -1.476682e-01
        28         1       -2.517947e-01
        29         1       -1.859369e+00
        30         1        1.017793e+00
        31         1       -5.450576e-01
        32         1        1.747052e+00
        33         1       -4.714970e-01
        34         1       -1.380064e+00
        35         1       -6.360299e-02
        36         1        1.938268e-01
        37         1       -1.952633e+00
        38         1       -1.201688e+00
        39         1       -8.395817e-01
        40         1        2.488191e-01
        41         1        2.927311e-01
        42         1       -1.227221e+00
        43         1        1.399152e+00
        44         1        1.917396e+00
        45         1        2.332686e-01
        46         1        2.170185e-01
        47         1        2.942684e-01
        48         1        4.779657e-01
        49         1        6.465699e-01
        50         1       -4.748923e-01
        51         1        7.049486e-01
        52         1        1.193083e+00
        53         1        2.070836e-01
        54         1       -1.478109e+00
        55         1       -2.163983e-01
        56         1        1.432165e-01
        57         1       -3.208129e-01
        58         1       -2.132438e-01
        59         1       -1.016908e+00
        60         1        7.945383e-01
        61         1       -7.916740e-01
        62         1       -4.347081e-01
        63         1        4.491782e-02
        64         1       -5.052056e-01
        65         1       -7.714484e-01
        66         1       -6.313155e-01
        67         1       -9.211084e-01
        68         1       -2.425746e-01
        69         1       -6.806678e-01
        70         1        1.206673e-01
        71         1        1.094358e+00
        72         1       -1.464779e+00
        73         1       -5.399339e-01
        74         1       -2.472200e-01
        75         1       -1.240105e+00
        76         1        7.039672e-01
        77         1        7.495855e-01
        78         1       -1.240240e+00
        79         1        1.351408e+00
        80         1       -2.632534e+00
        81         1       -4.187162e-01
        82         1        3.052394e-01
        83         1        6.397273e-01
        84         1        2.431474e+00
        85         1        7.523269e-01
        86         1        1.500156e-01
        87         1        5.962716e-01
        88         1        5.430929e-01
        89         1       -9.264011e-01
        90         1       -1.416376e+00
        91         1        2.229876e+00
        92         1        7.701969e-01
        93         1       -1.129139e+00
        94         1        1.184982e+00
        95         1        1.867801e+00
        96         1        4.491773e-01
        97         1       -3.555824e-01
        98         1        1.700451e+00
        99         1        3.306383e+00
       100         1       -1.290397e+00
         1         2        1.358453e-01
         2         2        1.286110e-02
         3         2       -1.361572e-01
         4         2       -1.258972e+00
         5         2       -2.576560e+00
         6         2        5.977826e-01
         7         2       -1.743748e+00
         8         2       -4.082564e-01
         9         2       -1.812227e-01
        10         2       -4.721015e-01
        11         2        1.208475e+00
        12         2       -2.706370e-01
        13         2       -8.034753e-01
        14         2       -6.479712e-01
        15         2       -1.456300e+00
        16         2        5.401822e-01
        17         2        1.979307e+00
        18         2        1.781615e+00
        19         2       -1.259968e-01
        20         2       -9.463570e-01
        21         2        1.028446e+00
        22         2       -1.609215e-01
        23         2       -1.108565e+00
        24         2        1.872193e+00
        25         2        2.279080e-01
        26         2        6.207063e-01
        27         2        1.306116e+00
        28         2       -4.593380e-01
        29         2        1.159256e-01
        30         2        4.864491e-01
        31         2       -4.639235e-01
        32         2        1.051250e+00
        33         2        5.998813e-01
        34         2       -1.115560e+00
        35         2        5.490929e-01
        36         2       -1.870265e-01
        37         2       -5.105445e-01
        38         2       -9.050077e-01
        39         2       -6.700875e-01
        40         2       -8.298693e-01
        41         2       -1.256315e+00
        42         2        5.972799e-01
        43         2        1.717233e-01
        44         2       -5.097908e-01
        45         2       -1.091352e+00
        46         2       -1.670170e+00
        47         2        5.062055e-01
        48         2       -2.718746e-01
        49         2       -5.624813e-01
        50         2        8.669006e-01
        51         2        2.228791e-01
        52         2        6.036993e-01
        53         2       -4.411317e-01
        54         2        4.911343e-02
        55         2       -8.121073e-01
        56         2        2.674317e-01
        57         2       -1.077654e+00
        58         2        2.562034e-01
        59         2        1.925837e+00
        60         2        2.521990e-01
        61         2       -6.026697e-01
        62         2        2.402313e+00
        63         2        5.303851e-01
        64         2        5.362934e-01
        65         2        9.579181e-01
        66         2       -5.761678e-01
        67         2        7.675296e-01
        68         2       -2.092552e-01
        69         2       -8.944892e-01
        70         2       -1.704540e+00
        71         2        1.181721e+00
        72         2        5.081474e-01
        73         2        3.871698e-01
        74         2        1.460858e+00
        75         2       -2.231325e-02
        76         2       -6.380037e-01
        77         2        3.572866e-01
        78         2        1.066964e+00
        79         2        1.686101e+00
        80         2       -8.346864e-01
        81         2        6.768516e-01
        82         2       -6.141559e-01
        83         2        1.314117e+00
        84         2       -1.351167e+00
        85         2        9.192515e-01
        86         2        1.997022e-01
        87         2       -2.421871e+00
        88         2       -7.409766e-01
        89         2       -8.650153e-02
        90         2       -1.362975e+00
        91         2        8.546088e-01
        92         2       -2.764193e-01
        93         2        8.765339e-01
        94         2       -1.223429e-01
        95         2       -1.592059e+00
        96         2       -6.065008e-01
        97         2       -1.180989e+00
        98         2        1.872030e-01
        99         2        1.473195e+00
       100         2        6.654251e-01
         1         3        1.782096e+00
         2         3        8.731212e-01
         3         3        7.916366e-01
         4         3       -4.110229e-01
         5         3        9.408213e-01
         6         3        1.032976e-01
         7         3       -8.199131e-01
         8         3        4.614545e-01
         9         3       -1.600463e+00
        10         3       -2.152199e-02
        11         3        1.078230e+00
        12         3        8.616521e-01
        13         3        7.758963e-01
        14         3        1.475749e+00
        15         3        1.997598e-01
        16         3       -2.389367e-01
        17         3       -7.284032e-01
        18         3       -6.979339e-01
        19         3       -6.579306e-01
        20         3        8.530623e-01
        21         3       -6.432381e-01
        22         3        1.308801e-01
        23         3        2.398283e+00
        24         3       -1.918264e+00
        25         3       -1.123591e+00
        26         3       -9.881595e-02
        27         3       -1.116280e-01
        28         3       -1.670926e+00
        29         3        1.921617e+00
        30         3       -7.365193e-02
        31         3       -3.861906e-01
        32         3        5.774612e-01
        33         3        4.749513e-01
        34         3        1.380666e+00
        35         3       -4.717738e-01
        36         3       -6.536419e-01
        37         3       -3.095439e-01
        38         3       -1.755688e+00
        39         3        2.320957e-01
        40         3       -8.242172e-01
        41         3        1.439021e-01
        42         3       -5.541219e-01
        43         3       -1.159754e-01
        44         3        2.261716e+00
        45         3       -6.593123e-01
        46         3        1.616624e+00
        47         3        9.432935e-01
        48         3       -6.868709e-01
        49         3        4.655542e-01
        50         3        9.320790e-01
        51         3        1.392476e+00
        52         3        7.690421e-01
        53         3        1.646600e+00
        54         3        1.710704e+00
        55         3       -4.219773e-01
        56         3       -4.376356e-02
        57         3       -1.815085e+00
        58         3        1.065083e-03
        59         3        8.242080e-02
        60         3        2.167167e+00
        61         3       -1.445974e-01
        62         3        1.125779e+00
        63         3       -1.797432e+00
        64         3       -6.856312e-01
        65         3       -9.967521e-01
        66         3        6.238814e-01
        67         3       -3.860371e-01
        68         3       -1.867724e+00
        69         3       -4.751384e-02
        70         3       -4.339481e-01
        71         3       -6.951898e-01
        72         3        1.261903e+00
        73         3        1.169535e+00
        74         3        2.177266e-01
        75         3        6.599910e-01
        76         3        4.154950e-01
        77         3        7.298311e-01
        78         3       -3.448461e-01
        79         3        5.747437e-01
        80         3        1.813517e+00
        81         3       -1.603710e+00
        82         3       -2.416620e-01
        83         3       -5.438747e-01
        84         3       -1.173239e+00
        85         3        2.885451e+00
        86         3        2.704669e-01
        87         3        1.231427e-01
        88         3       -1.547981e+00
        89         3       -4.006641e-02
        90         3       -1.864588e-01
        91         3        6.481691e-01
        92         3       -1.503401e+00
        93         3        4.075872e-01
        94         3        5.876751e-01
        95         3        3.828231e-01
        96         3       -1.288581e+00
        97         3       -1.140072e+00
        98         3       -7.031260e-01
        99         3        1.616955e+00
       100         3        9.836099e-01
         1         4       -2.847222e-01
         2         4       -7.040686e-01
         3         4       -3.000918e-01
         4         4       -1.169692e+00
         5         4       -1.450485e+00
         6         4       -8.701046e-01
         7         4        4.476997e-04
         8         4       -1.323526e+00
         9         4       -1.013034e+00
        10         4        1.178427e-01
        11         4       -1.068971e-01
        12         4        2.082278e-01
        13         4        1.833802e+00
        14         4        5.791041e-01
        15         4       -1.706016e+00
        16         4        9.901913e-01
        17         4        5.413470e-02
        18         4       -4.731628e-02
        19         4        8.039066e-01
        20         4        4.458111e-01
        21         4       -6.135512e-01
        22         4        6.817450e-01
        23         4       -6.348520e-01
        24         4        1.146203e+00
        25         4       -1.039047e+00
        26         4        3.127145e-02
        27         4       -3.293725e-01
        28         4       -7.527939e-01
        29         4       -1.127264e+00
        30         4        2.225022e-03
        31         4       -1.014723e+00
        32         4        2.826950e-01
        33         4       -6.688580e-01
        34         4        8.273460e-01
        35         4        5.430915e-01
        36         4        2.552089e-01
        37         4        1.080015e+00
        38         4       -5.847039e-01
        39         4       -9.438010e-01
        40         4       -1.366802e+00
        41         4       -2.355503e+00
        42         4        2.025546e+00
        43         4       -1.111567e+00
        44         4        3.519646e-01
        45         4        1.026122e+00
        46         4       -4.846135e-01
        47         4       -5.939915e-01
        48         4       -4.907629e-01
        49         4       -5.018523e-01
        50         4        9.683701e-01
        51         4       -1.430335e+00
        52         4       -4.423152e-01
        53         4       -1.749731e-01
        54         4       -4.821307e-01
        55         4       -4.958525e-01
        56         4        2.719021e-01
        57         4       -3.188023e-01
        58         4        9.807150e-01
        59         4       -9.239726e-01
        60         4       -2.062601e-01
        61         4        2.140186e+00
        62         4       -1.066748e+00
        63         4       -3.633837e-01
        64         4        7.813586e-01
        65         4        1.257486e+00
        66         4        2.591491e-01
        67         4       -1.048956e+00
        68         4        9.329349e-01
        69         4        1.826697e+00
        70         4       -3.166186e-01
        71         4        8.317977e-01
        72         4        8.587330e-02
        73         4       -2.779348e+00
        74         4        4.497452e-01
        75         4       -1.179424e+00
        76         4        6.329524e-01
        77         4       -1.530787e-02
        78         4        9.385645e-01
        79         4        6.480277e-01
        80         4        1.202710e-01
        81         4       -6.724582e-02
        82         4        4.794205e-02
        83         4        3.050846e-01
        84         4       -8.432866e-01
        85         4        7.811890e-03
        86         4        2.828950e-01
        87         4        5.473312e-01
        88         4        2.084365e-01
        89         4        4.921012e-01
        90         4       -1.019670e+00
        91         4       -1.142981e+00
        92         4       -9.756519e-01
        93         4        7.425752e-01
        94         4        1.132504e-02
        95         4       -4.568179e-01
        96         4        6.214831e-01
        97         4        9.057700e-01
        98         4        4.084851e-01
        99         4       -1.596787e+00
       100         4        5.867098e-01
         1         5       -2.902625e-01
         2         5       -1.559873e+00
         3         5        1.271154e+00
         4         5        9.667740e-03
         5         5       -1.296024e-01
         6         5       -1.998857e+00
         7         5        6.627206e-01
         8         5       -2.776333e-01
         9         5        1.625472e-02
        10         5       -2.890437e-01
        11         5       -6.067126e-01
        12         5       -4.368958e-01
        13         5        1.385566e-01
        14         5        1.871215e-01
        15         5        5.043099e-01
        16         5        1.077286e+00
        17         5       -8.670357e-01
        18         5       -2.376418e-01
        19         5        3.452177e-01
        20         5        7.698321e-01
        21         5       -3.094849e-01
        22         5        2.936574e-01
        23         5        6.986064e-01
        24         5       -9.021244e-04
        25         5        3.771649e-01
        26         5       -6.954413e-02
        27         5       -9.721925e-01
        28         5        1.113488e+00
        29         5        6.544480e-01
        30         5       -5.586332e-01
        31         5        4.033388e-01
        32         5       -2.167775e+00
        33         5        1.393426e+00
        34         5       -3.904259e-01
        35         5       -5.950151e-01
        36         5        1.187499e-01
        37         5       -7.482249e-01
        38         5       -9.012051e-01
        39         5       -1.877087e+00
        40         5        1.531029e+00
        41         5       -5.893180e-01
        42         5        3.121905e-01
        43         5       -1.121470e+00
        44         5       -4.599803e-01
        45         5       -1.355768e+00
        46         5       -2.161792e-01
        47         5        1.229862e+00
        48         5       -2.019500e+00
        49         5       -1.176814e+00
        50         5        3.133089e-01
        51         5       -1.213494e+00
        52         5        2.114218e+00
        53         5        8.151976e-01
        54         5        7.740637e-01
        55         5        1.392339e+00
        56         5       -3.895619e-02
        57         5        4.607766e-01
        58         5        1.209994e+00
        59         5        6.690555e-01
        60         5       -1.862839e-01
        61         5        6.313287e-01
        62         5        9.455736e-01
        63         5       -2.331877e-01
        64         5        1.525634e+00
        65         5        5.548750e-01
        66         5       -1.258599e-01
        67         5        7.736593e-01
        68         5        1.431306e+00
        69         5       -2.128021e-01
        70         5        1.972854e+00
        71         5       -9.254304e-01
        72         5        1.704629e+00
        73         5        1.755563e+00
        74         5       -5.708448e-01
        75         5       -2.149085e+00
        76         5        6.849937e-01
        77         5        7.912441e-02
        78         5        1.414729e+00
        79         5       -1.026927e-02
        80         5       -1.197984e+00
        81         5        9.795613e-01
        82         5        9.270250e-01
        83         5        2.824428e-01
        84         5        1.921158e-01
        85         5       -4.638882e-01
        86         5       -1.441195e+00
        87         5       -1.361793e+00
        88         5        2.932928e+00
        89         5        1.565248e+00
        90         5       -7.593487e-01
        91         5        1.206334e+00
        92         5       -5.894265e-01
        93         5        9.622918e-01
        94         5       -1.339519e+00
        95         5        2.301193e+00
        96         5        1.741700e+00
        97         5        6.806972e-01
        98         5        3.113519e-02
        99         5        1.060260e+00
       100         5       -1.692416e+00
;

param theta:=
    1        5.176109e-01
    2       -8.057801e-01
    3        1.463279e+00
    4       -7.885431e-01
    5       -3.505395e-01
;
param X_true:=
    1        2.263603e+00
    2        2.673630e+00
    3        1.373167e+00
    4        8.355117e-01
    5        4.921321e+00
    6        1.807939e+00
    7        3.976588e-01
    8        2.538220e+00
    9       -1.333314e+00
   10        3.200597e-03
   11        1.540620e+00
   12        4.473824e-01
   13       -4.277995e-01
   14        2.397021e+00
   15        2.305603e+00
   16       -1.991757e+00
   17       -1.669202e+00
   18       -2.638951e+00
   19       -1.017579e+00
   20        5.643917e-01
   21       -1.119092e+00
   22       -5.842733e-01
   23        5.074459e+00
   24       -4.943226e+00
   25       -1.624587e-01
   26       -5.174461e-02
   27       -6.175113e-01
   28       -2.093240e+00
   29        2.378193e+00
   30        2.706860e-01
   31        7.800702e-02
   32        1.529492e+00
   33        4.544537e-03
   34        1.744440e+00
   35       -1.336925e+00
   36       -9.592014e-01
   37       -1.799081e+00
   38       -1.688363e+00
   39        1.789341e+00
   40        1.287513e-01
   41        3.499029e+00
   42       -3.611640e+00
   43        1.673274e+00
   44        4.698118e+00
   45       -4.337814e-01
   46        4.395655e+00
   47        1.007098e+00
   48        5.121684e-01
   49        2.464297e+00
   50       -3.746021e-01
   51        3.875746e+00
   52        7.455631e-01
   53        2.772803e+00
   54        1.593371e+00
   55       -3.468314e-01
   56       -3.327141e-01
   57       -1.821474e+00
   58       -1.295634e+00
   59       -1.510007e+00
   60        3.876478e+00
   61       -2.068230e+00
   62       -2.049979e-01
   63       -2.544341e+00
   64       -3.101906e+00
   65       -3.889276e+00
   66        8.384871e-01
   67       -1.160737e+00
   68       -4.045248e+00
   69       -1.138989e+00
   70        2.055841e-01
   71       -1.828771e+00
   72        1.559839e-01
   73        2.721375e+00
   74       -1.140112e+00
   75        2.123483e+00
   76        8.051579e-01
   77        1.095284e+00
   78       -3.176788e+00
   79       -2.067735e-01
   80        2.255960e+00
   81       -3.614425e+00
   82        6.276395e-02
   83       -1.964079e+00
   84        1.393807e+00
   85        4.097809e+00
   86        7.611832e-01
   87        2.366933e+00
   88       -2.650937e+00
   89       -1.394878e+00
   90        1.000809e+00
   91        1.937682e+00
   92       -6.791741e-01
   93       -1.653210e+00
   94        1.798769e+00
   95        2.359033e+00
   96       -2.371424e+00
   97       -1.801192e+00
   98       -6.651017e-01
   99        3.822008e+00
  100        3.495763e-01
;
param X:=
    1        2.263603e+00
    2        2.673630e+00
    3        1.373167e+00
    4        8.355117e-01
    5        4.921321e+00
    6        1.807939e+00
    7        3.976588e-01
    8        2.538220e+00
    9       -1.333314e+00
   10        3.200597e-03
   11        1.540620e+00
   12        4.473824e-01
   13       -4.277995e-01
   14        2.397021e+00
   15        2.305603e+00
   16       -1.991757e+00
   17       -1.669202e+00
   18       -2.638951e+00
   19       -1.017579e+00
   20        5.643917e-01
   21       -1.119092e+00
   22       -5.842733e-01
   23        5.074459e+00
   24       -4.943226e+00
   25       -1.624587e-01
   26       -5.174461e-02
   27       -6.175113e-01
   28       -2.093240e+00
   29        2.378193e+00
   30        2.706860e-01
   31        7.800702e-02
   32        1.529492e+00
   33        1.261677e+00
   34       -1.710747e+00
   35       -1.336925e+00
   36       -1.546801e-01
   37       -1.799081e+00
   38       -1.688363e+00
   39        1.789341e+00
   40        1.287513e-01
   41        3.499029e+00
   42       -3.611640e+00
   43        1.673274e+00
   44       -4.396231e-01
   45       -4.337814e-01
   46        4.395655e+00
   47        1.007098e+00
   48        5.121684e-01
   49       -9.859026e-02
   50       -3.746021e-01
   51        3.875746e+00
   52        7.455631e-01
   53        2.772803e+00
   54        1.593371e+00
   55       -3.468314e-01
   56       -3.327141e-01
   57       -1.821474e+00
   58       -1.295634e+00
   59       -1.510007e+00
   60        3.876478e+00
   61       -2.068230e+00
   62       -2.049979e-01
   63       -2.544341e+00
   64       -3.101906e+00
   65       -3.889276e+00
   66        5.818255e-01
   67       -1.160737e+00
   68       -4.045248e+00
   69       -1.138989e+00
   70        2.055841e-01
   71       -1.828771e+00
   72        1.559839e-01
   73        2.721375e+00
   74       -1.140112e+00
   75        2.123483e+00
   76        8.051579e-01
   77        1.095284e+00
   78       -3.176788e+00
   79       -2.067735e-01
   80        2.255960e+00
   81       -3.614425e+00
   82        6.276395e-02
   83       -1.964079e+00
   84        1.393807e+00
   85        1.890820e-01
   86       -2.572161e-01
   87        2.366933e+00
   88       -2.650937e+00
   89       -1.394878e+00
   90        1.000809e+00
   91        1.937682e+00
   92       -6.791741e-01
   93       -1.653210e+00
   94        1.798769e+00
   95        2.359033e+00
   96       -2.371424e+00
   97        1.724496e+00
   98       -6.651017e-01
   99       -5.326987e-01
  100        3.495763e-01
;
param outliervec:=
    1    0
    2    0
    3    0
    4    0
    5    0
    6    0
    7    0
    8    0
    9    0
   10    0
   11    0
   12    0
   13    0
   14    0
   15    0
   16    0
   17    0
   18    0
   19    0
   20    0
   21    0
   22    0
   23    0
   24    0
   25    0
   26    0
   27    0
   28    0
   29    0
   30    0
   31    0
   32    0
   33    1
   34    1
   35    0
   36    1
   37    0
   38    0
   39    0
   40    0
   41    0
   42    0
   43    0
   44    1
   45    0
   46    0
   47    0
   48    0
   49    1
   50    0
   51    0
   52    0
   53    0
   54    0
   55    0
   56    0
   57    0
   58    0
   59    0
   60    0
   61    0
   62    0
   63    0
   64    0
   65    0
   66    1
   67    0
   68    0
   69    0
   70    0
   71    0
   72    0
   73    0
   74    0
   75    0
   76    0
   77    0
   78    0
   79    0
   80    0
   81    0
   82    0
   83    0
   84    0
   85    1
   86    1
   87    0
   88    0
   89    0
   90    0
   91    0
   92    0
   93    0
   94    0
   95    0
   96    0
   97    1
   98    0
   99    1
  100    0
;